certificates/rado_a13_c210_N26.drat
16 -25 0
17 24 -16 0
-16 -26 0
d -24 -16 -26 0
-17 -26 0
-26 0
17 0
-6 0
-15 0
21 0
11 0
-10 0
-22 0
25 0
7 0
16 0
-14 0
-5 0
-18 0
-9 0
-23 0
-19 0
-13 0
20 0
2 0
3 0
24 0
8 0
4 0
0
